
  22   10
  10   10   10   10   10   10   10   10   10   10

   0   0   0   0   0   0   0   0   0   0   0   5 2 3 9 20 21 
   1  10  10  10  10  10  10  10  10  10  10   2 8 4 
   5  10  10  10  10  10  10  10  10  10  10   3 16 8 5 
   1  10  10  10  10  10  10  10  10  10  10   3 19 16 5 
   3  10  10  10  10  10  10  10  10  10  10   2 15 6 
  10  10  10  10  10  10  10  10  10  10  10   4 14 13 12 7 
   9  10  10  10  10  10  10  10  10  10  10   2 11 10 
   5  10  10  10  10  10  10  10  10  10  10   2 18 17 
  10  10  10  10  10  10  10  10  10  10  10   1 10 
   9  10  10  10  10  10  10  10  10  10  10   1 22
   8  10  10  10  10  10  10  10  10  10  10   1 22
   2  10  10  10  10  10  10  10  10  10  10   1 22
   5  10  10  10  10  10  10  10  10  10  10   1 22
   6  10  10  10  10  10  10  10  10  10  10   1 22
   3  10  10  10  10  10  10  10  10  10  10   1 22
   2  10  10  10  10  10  10  10  10  10  10   1 22
  10  10  10  10  10  10  10  10  10  10  10   1 22
   5  10  10  10  10  10  10  10  10  10  10   1 22
   1  10  10  10  10  10  10  10  10  10  10   1 22
   2  10  10  10  10  10  10  10  10  10  10   1 22
  10  10  10  10  10  10  10  10  10  10  10   1 22
   0   0   0   0   0   0   0   0   0   0   0   0 
